# Objective value = 2.9734921292064985e+02
x[0] 1
x[1] 0
x[2] -1.1764705909467210e-07
x[3] 1
x[4] -2.9500326250147432e-07
x[5] 1
x[6] 0
x[7] 1
x[8] 0
x[9] 0
x[10] 1
x[11] 1
x[12] 0
x[13] 0
x[14] 0
x[15] -2.3529411818934420e-07
x[16] 0
x[17] 1
x[18] 0
x[19] 0
x[20] 0
x[21] 1
x[22] 0
x[23] 0
x[24] 0
x[25] 1.0000004116992485e+00
x[26] 1
x[27] 0
x[28] 0
x[29] 0
x[30] 1
x[31] 1
x[32] 1
x[33] 9.9999964705882283e-01
x[34] 1
x[35] 1
x[36] 0
x[37] 0
x[38] 1
x[39] 0
x[40] 0
x[41] 0
x[42] 1
x[43] 1
x[44] 1
x[45] 1
x[46] 1.0000002352104771e+00
x[47] 0
x[48] 1
x[49] 0
x[50] 1
x[51] 1
x[52] 1
x[53] 0
x[54] -1.1764705920569440e-07
x[55] 1
x[56] 1.0000001175716047e+00
x[57] 1
x[58] 1
x[59] 0
x[60] 0
x[61] 1.0000001175123
x[62] 0
x[63] 1
x[64] 1
x[65] 0
x[66] 1.0000004116877976e+00
x[67] 0
x[68] 1.0000002352197890e+00
x[69] -1.1431372587236107e-07
x[70] 0
x[71] 1.0000002744221170e+00
x[72] 1
x[73] 0
x[74] 0
x[75] 0
x[76] 0
x[77] 1
x[78] 1
x[79] 0
x[80] 1
x[81] 1
x[82] 0
x[83] 0
x[84] 1
x[85] 1.0000002352304194e+00
x[86] 1
x[87] -2.3196078485601087e-07
x[88] 0
x[89] 0
x[90] 0
x[91] 1
x[92] 1.0000001175251727e+00
x[93] 0
x[94] 1
x[95] 1
x[96] 1
x[97] 1
x[98] 1
x[99] 1
x[100] 0
x[101] -4.0843137339076638e-07
x[102] 0
x[103] 1
x[104] 1
x[105] 0
x[106] 1
x[107] 0
x[108] 0
x[109] 1
x[110] 0
x[111] 1
x[112] 1
x[113] 0
x[114] 1.0000002352356447e+00
x[115] 1
x[116] 1
x[117] 0
x[118] 1
x[119] 0
x[120] 1
x[121] -2.3529411818934420e-07
x[122] 0
x[123] 0
x[124] 0
x[125] 1
x[126] 1.0000003528661774e+00
x[127] 0
x[128] 0
x[129] 1
x[130] 0
x[131] 0
x[132] 1
x[133] -2.3529411818934420e-07
x[134] 1
x[135] 1
x[136] 0
x[137] 1
x[138] 0
x[139] 1
x[140] -1.1764705898364980e-07
x[141] 1
x[142] 0
x[143] 0
x[144] 1
x[145] 0
x[146] 1
x[147] 0
x[148] 1
x[149] 0
x[150] -2.3529411818934420e-07
x[151] 0
x[152] 1
x[153] 0
x[154] 0
x[155] -2.3196078479472367e-07
x[156] 1
x[157] 0
x[158] -2.3529411818934420e-07
x[159] 0
x[160] 0
x[161] 0
x[162] -2.3529411796729960e-07
x[163] 0
x[164] 1
x[165] 1.0000001175434694e+00
x[166] 1.0000001175337918e+00
x[167] 0
x[168] 1
x[169] 1
x[170] 1
x[171] 1
x[172] 1
x[173] 0
x[174] 1
x[175] 0
x[176] 0
x[177] 0
x[178] 1
x[179] 1
x[180] 1
x[181] 0
x[182] 0
x[183] 1
x[184] 0
x[185] 0
x[186] 1
x[187] 0
x[188] 1
x[189] 1
x[190] 0
x[191] 0
x[192] 0
x[193] 0
x[194] 0
x[195] 1
x[196] 0
x[197] 0
x[198] 0
x[199] 0
x[200] 0
x[201] 1
x[202] 1.0000002351702764e+00
x[203] 1
x[204] 1
x[205] 0
x[206] 0
x[207] 1
x[208] 1
x[209] 1
x[210] 1
x[211] 1
x[212] 1
x[213] 1
x[214] 1
x[215] 1
x[216] 1
x[217] 1
x[218] 1
x[219] -1.1764705925251983e-07
x[220] 1
x[221] 1
x[222] -4.0843137344250787e-07
x[223] 0
x[224] 0
x[225] 1
x[226] 0
x[227] -2.3196078485601087e-07
x[228] 1
x[229] 0
x[230] 1
x[231] 0
x[232] 0
x[233] 0
x[234] 1
x[235] 0
x[236] -2.3039513870545482e-07
x[237] 1
x[238] 1
x[239] 0
x[240] 1
x[241] 0
x[242] 0
x[243] 1
x[244] 1
x[245] 1
x[246] 1.0000004116782468e+00
x[247] 1
x[248] 1
x[249] 1
x[250] 1
x[251] -1.9251336940458313e-07
x[252] 1
x[253] -1.1431372587236107e-07
x[254] 1
x[255] 1
x[256] 0
x[257] 0
x[258] 1
x[259] 0
x[260] 1
x[261] 1
x[262] 1
x[263] 0
x[264] 0
x[265] 1.0000001175800881e+00
x[266] 0
x[267] 1
x[268] 0
x[269] -4.6568925689312206e-07
x[270] 0
x[271] 1
x[272] 0
x[273] 1
x[274] 1
x[275] 0
x[276] 0
x[277] 0
x[278] 1
x[279] 0
x[280] 1.0000001408823038e+00
x[281] 1
x[282] 1
x[283] 0
x[284] 0
x[285] 0
x[286] 1
x[287] 1
x[288] 0
x[289] 1
x[290] 1
x[291] 1
x[292] 0
x[293] 1
x[294] 1
x[295] 0
x[296] 1
x[297] 0
x[298] 1
x[299] 1
x[300] 0
x[301] 0
x[302] 0
x[303] 0
x[304] 1
x[305] 0
x[306] 0
x[307] 1
x[308] 1
x[309] 0
x[310] -3.4960784383966067e-07
x[311] 1.0000001174914381e+00
x[312] 0
x[313] 0
x[314] 1
x[315] 0
x[316] 1
x[317] 0
x[318] 0
x[319] 0
x[320] 1
x[321] 1
x[322] 1
x[323] 0
x[324] 0
x[325] 0
x[326] 0
x[327] 1
x[328] 0
x[329] 1
x[330] 0
x[331] 0
x[332] 0
x[333] 1
x[334] 0
x[335] 0
x[336] 1
x[337] 0
x[338] 1
x[339] -1.1431372587236107e-07
x[340] 1
x[341] 0
x[342] 0
x[343] 1
x[344] 1
x[345] 1
x[346] 1
x[347] 0
x[348] 0
x[349] 1
x[350] 1
x[351] 0
x[352] 1.0000001174099835e+00
x[353] 1
x[354] 0
x[355] 1
x[356] 1
x[357] 0
x[358] 0
x[359] 1
x[360] 1
x[361] 1
x[362] -2.3529411796729960e-07
x[363] -1.1764705917401520e-07
x[364] 0
x[365] 1
x[366] 0
x[367] 0
x[368] 0
x[369] 1
x[370] 0
x[371] 0
x[372] 1
x[373] 0
x[374] 1
x[375] -4.0836591511659255e-07
x[376] 0
x[377] 1.0000002352162602e+00
x[378] 0
x[379] 1
x[380] 0
x[381] 0
x[382] 0
x[383] 0
x[384] 0
x[385] 0
x[386] 0
x[387] 1.0000001175595807e+00
x[388] 1
x[389] 1
x[390] 0
x[391] 1
x[392] 0
x[393] 1
x[394] 3.5285726672186105e-07
x[395] 0
x[396] 1
x[397] 1
x[398] 0
x[399] -1.1764705909308002e-07
x[400] -2.35294118128057e-07
x[401] 0
x[402] 0
x[403] 1
x[404] -1.1764705920569440e-07
x[405] 1
x[406] 1.0000001175767883e+00
x[407] 0
x[408] 1.0000004115079530e+00
x[409] 1
x[410] 1
x[411] 1
x[412] 0
x[413] 0
x[414] 0
x[415] 0
x[416] 1
x[417] 1
x[418] -1.1764705920569440e-07
x[419] 1
x[420] 1.0000003528663350e+00
x[421] 1
x[422] -2.3309981783513562e-07
x[423] 1
x[424] 1
x[425] 1
x[426] 0
x[427] 0
x[428] 0
x[429] 1
x[430] 1
x[431] 0
x[432] 0
x[433] 1
x[434] 1
x[435] 0
x[436] -1.1764705920569440e-07
x[437] 1.0000001175408386e+00
x[438] 1
x[439] 0
x[440] 0
x[441] 1
x[442] 0
x[443] 1
x[444] 0
x[445] 1
x[446] 0
x[447] 0
x[448] 1
x[449] 0
x[450] 1
x[451] 1
x[452] 0
x[453] 1
x[454] 1
x[455] 0
x[456] 0
x[457] 0
x[458] 1
x[459] 0
x[460] 0
x[461] 0
x[462] 0
x[463] 0
x[464] 1
x[465] 0
x[466] -2.3196078485601087e-07
x[467] 1
x[468] 0
x[469] -4.1176470672409972e-07
x[470] 1
x[471] 1
x[472] 0
x[473] 0
x[474] 0
x[475] 1
x[476] -1.1431372604367806e-07
x[477] 0
x[478] 0
x[479] 1
x[480] 0
x[481] 9.9999976803921509e-01
x[482] 0
x[483] 0
x[484] 0
x[485] 0
x[486] 1
x[487] 1.0000001175753015e+00
x[488] 0
x[489] 0
x[490] -1.1431372584068186e-07
x[491] 0
x[492] 1
x[493] 1
x[494] 0
x[495] -4.0834491338412838e-07
x[496] 1
x[497] -1.76470588586497e-07
x[498] 1.0000004115854793e+00
x[499] 1
x[500] 1
x[501] 0
x[502] 0
x[503] 0
x[504] 1
x[505] 0
x[506] 0
x[507] 1
x[508] 0
x[509] 1.0000001175441235e+00
x[510] 0
x[511] 1
x[512] 1
x[513] 1
x[514] 0
x[515] 0
x[516] 1
x[517] 0
x[518] 0
x[519] 0
x[520] 0
x[521] 0
x[522] 1
x[523] -4.1176470677584120e-07
x[524] 0
x[525] 0
x[526] 1
x[527] 1
x[528] 0
x[529] 1
x[530] 0
x[531] 1.0000002352301558e+00
x[532] 9.9999965039215621e-01
x[533] 0
x[534] 1.0000001174616111e+00
x[535] 1
x[536] 1
x[537] 0
x[538] 0
x[539] 1
x[540] 1
x[541] 1
x[542] -3.5219202760168872e-07
x[543] 1
x[544] 0
x[545] 0
x[546] 1.0000001763855524e+00
x[547] 0
x[548] 0
x[549] 0
x[550] 0
x[551] 1
x[552] 1
x[553] 1
x[554] 0
x[555] 0
x[556] 0
x[557] 0
x[558] -1.1764705898364980e-07
x[559] -3.5077611366353290e-07
x[560] 1
x[561] 1
x[562] 0
x[563] 0
x[564] 0
x[565] 1
x[566] -3.5294117719208549e-07
x[567] 1
x[568] 1
x[569] 0
x[570] 0
x[571] 0
x[572] 1
x[573] 1.0000002352010524e+00
x[574] 1
x[575] 1
x[576] 1
x[577] 1
x[578] 1
x[579] 1
x[580] 1.0000001175825060e+00
x[581] 1
x[582] 1
x[583] 0
x[584] 1
x[585] 1
x[586] 0
x[587] 0
x[588] 0
x[589] 1
x[590] 1
x[591] 0
x[592] 1
x[593] 1.0000001175864890e+00
x[594] 1
x[595] -1.1764705935141204e-07
x[596] 1
x[597] 1
x[598] 0
x[599] 0
x[600] 1.0000003528226211e+00
x[601] 0
x[602] 0
x[603] -1.7313725525316366e-07
x[604] 0
x[605] 0
x[606] 1
x[607] 0
x[608] 0
x[609] 1
x[610] 1
x[611] 0
x[612] 0
x[613] 0
x[614] 0
x[615] 1
x[616] 0
x[617] 0
x[618] 0
x[619] 0
x[620] 0
x[621] 0
x[622] 0
x[623] 1
x[624] 0
x[625] 0
x[626] 0
x[627] 0
x[628] 0
x[629] 0
x[630] 0
x[631] 0
x[632] 1
x[633] 1
x[634] 1
x[635] 0
x[636] 1
x[637] 1
x[638] 1
x[639] 1
x[640] -1.1764705920569440e-07
x[641] 1
x[642] 0
x[643] 1
x[644] 0
x[645] 1
x[646] 1
x[647] 1
x[648] 0
x[649] 1
x[650] 1
x[651] 0
x[652] 1
x[653] 1
x[654] 0
x[655] 0
x[656] 1
x[657] 0
x[658] 1
x[659] 0
x[660] 1
x[661] 1
x[662] 0
x[663] 1
x[664] 1
x[665] 1
x[666] 0
x[667] 0
x[668] -1.1764705920569440e-07
x[669] 0
x[670] 1
x[671] 0
x[672] 0
x[673] 0
x[674] 0
x[675] -1.1764705917401520e-07
x[676] 1
x[677] 0
x[678] 1
x[679] 1
x[680] 0
x[681] 1
x[682] 1
x[683] 1
x[684] 0
x[685] 0
x[686] 1
x[687] 1
x[688] 0
x[689] 1
x[690] 1
x[691] 0
x[692] 1.0000002351692499e+00
x[693] 0
x[694] 0
x[695] 0
x[696] 1
x[697] 1
x[698] 1.0000001172417805e+00
x[699] 1
x[700] 1
x[701] 0
x[702] 1
x[703] 1.0000004103436957e+00
x[704] 0
x[705] 0
x[706] 1
x[707] 0
x[708] 1
x[709] -2.3196078463396626e-07
x[710] 0
x[711] 0
x[712] -4.6718057386394956e-07
x[713] 0
x[714] 1
x[715] 0
x[716] -1.1424196811273665e-07
x[717] 1
x[718] 0
x[719] 0
x[720] 1
x[721] 0
x[722] 0
x[723] 0
x[724] 1
x[725] 0
x[726] 0
x[727] 1
x[728] 0
x[729] 0
x[730] 0
x[731] 0
x[732] 1
x[733] -2.3529411819102117e-07
x[734] 1
x[735] 1
x[736] 0
x[737] 0
x[738] 0
x[739] 0
x[740] 0
x[741] 1
x[742] 1
x[743] 0
x[744] 0
x[745] 1
x[746] 0
x[747] 1
x[748] 0
x[749] 1
x[750] 1
x[751] 0
x[752] 1
x[753] 1
x[754] 1
x[755] 1
x[756] 0
x[757] 0
x[758] 0
x[759] 1.0000001175497102e+00
x[760] 1
x[761] 1
x[762] 1
x[763] 0
x[764] 0
x[765] 0
x[766] 0
x[767] 0
x[768] 1.0000002352319024e+00
x[769] 0
x[770] 1
x[771] 1
x[772] 1
x[773] 0
x[774] 1
x[775] 0
x[776] 0
x[777] 1
x[778] 0
x[779] 1.0000001174808741e+00
x[780] 1
x[781] 0
x[782] 1
x[783] 1
x[784] 0
x[785] 0
x[786] 1.0000002352310342e+00
x[787] 0
x[788] 1
x[789] 1
x[790] 0
x[791] 0
x[792] 1
x[793] 1
x[794] 0
x[795] 1
x[796] 1
x[797] 0
x[798] 1
x[799] 0
x[800] 1
x[801] 1
x[802] 0
x[803] 1
x[804] 1
x[805] 1
x[806] 1
x[807] 1.0000004116160952e+00
x[808] 0
x[809] 0
x[810] 1
x[811] 0
x[812] 9.9999988235294079e-01
x[813] 0
x[814] 0
x[815] 0
x[816] -2.3372847188177885e-07
x[817] 1
x[818] -4.2352941272918374e-07
x[819] 0
x[820] 1
x[821] 0
x[822] 0
x[823] 1
x[824] 0
x[825] 1
x[826] 1
x[827] 1
x[828] 1
x[829] 1
x[830] 0
x[831] 0
x[832] 1
x[833] 0
x[834] 0
x[835] 0
x[836] 0
x[837] 0
x[838] 0
x[839] 1
x[840] 0
x[841] 0
x[842] 0
x[843] 0
x[844] 0
x[845] 1
x[846] 0
x[847] 1.0000002349728776e+00
x[848] 1
x[849] 1
x[850] 0
x[851] 0
x[852] 0
x[853] 1
x[854] 1
x[855] 0
x[856] 1
x[857] 1
x[858] 1.0000001174557787e+00
x[859] 0
x[860] 1
x[861] 1
x[862] 0
x[863] 1
x[864] 1
x[865] 1.0000001175690763e+00
x[866] 0
x[867] 1
x[868] 0
x[869] 0
x[870] 1
x[871] 1
x[872] 0
x[873] 1
x[874] 1
x[875] 1
x[876] 1
x[877] 0
x[878] 0
x[879] 0
x[880] 0
x[881] 1
x[882] 1
x[883] 0
x[884] 1
x[885] 0
x[886] 1
x[887] 0
x[888] 0
x[889] 0
x[890] 1
x[891] 0
x[892] 0
x[893] 1
x[894] 0
x[895] 1
x[896] 1.0000001175308821e+00
x[897] 1
x[898] 0
x[899] 0
x[900] 0
x[901] 1.0000002352158555e+00
x[902] 1
x[903] 1
x[904] 0
x[905] 1
x[906] 1
x[907] 1
x[908] 1
x[909] 1
x[910] 1
x[911] 1.0000001175661695e+00
x[912] 1
x[913] 0
x[914] 1
x[915] 1
x[916] 0
x[917] 1.0000001763594419e+00
x[918] 1
x[919] 0
x[920] 0
x[921] 0
x[922] 1
x[923] 0
x[924] 0
x[925] 1
x[926] 1
x[927] 1.0000002645294046e+00
x[928] 1.0000002352239352e+00
x[929] 0
x[930] 1
x[931] 1
x[932] 1
x[933] 1
x[934] 1.1740733408066116e-07
x[935] -4.1176470677584120e-07
x[936] 1
x[937] 1
x[938] -1.1521027093131042e-07
x[939] 1
x[940] 0
x[941] 0
x[942] 0
x[943] 1.0000001175623885e+00
x[944] 1
x[945] 1
x[946] 1
x[947] 1
x[948] 0
x[949] 0
x[950] 1
x[951] 1
x[952] -2.3189708598706676e-07
x[953] 1
x[954] -1.1764705898364980e-07
x[955] 3.5281030882012075e-07
x[956] 1
x[957] 1.0000002352331359e+00
x[958] 0
x[959] 1
x[960] 0
x[961] 1
x[962] 0
x[963] 1
x[964] -1.1431372584068186e-07
x[965] 0
x[966] 0
x[967] 0
x[968] 1.0000002351235853e+00
x[969] 0
x[970] 0
x[971] 0
x[972] -1.1764705920569440e-07
x[973] 1
x[974] 0
x[975] 1
x[976] 1
x[977] -2.3196078463396626e-07
x[978] 1
x[979] 0
x[980] 0
x[981] 0
x[982] 1
x[983] 1
x[984] 0
x[985] 0
x[986] 0
x[987] 0
x[988] -1.1431372609440567e-07
x[989] 1
x[990] 1
x[991] 1
x[992] 0
x[993] 0
x[994] 0
x[995] 0
x[996] 1
x[997] 1
x[998] 1
x[999] 1
